graph_generation/data/sat/rcsp/hexagonal_lattice_N_2_weights-one_windows-loose.txt
N = 16;
M = 36;
Edge_Start = [1, 1, 2, 2, 3, 3, 3, 4, 4, 5, 5, 6, 6, 7, 7, 7, 8, 8, 8, 9, 9, 9, 10, 10, 10, 11, 12, 12, 13, 13, 14, 14, 14, 15, 15, 16];
Edge_End = [2, 6, 1, 3, 2, 4, 8, 3, 5, 4, 10, 1, 7, 6, 8, 12, 3, 7, 9, 8, 10, 14, 5, 9, 11, 10, 7, 13, 12, 14, 9, 13, 15, 14, 16, 15];
L = [1, 1, 1, 1, 1, 1, 1, 1, 1, 1, 1, 1, 1, 1, 1, 1, 1, 1, 1, 1, 1, 1, 1, 1, 1, 1, 1, 1, 1, 1, 1, 1, 1, 1, 1, 1];
T = [1, 1, 1, 1, 1, 1, 1, 1, 1, 1, 1, 1, 1, 1, 1, 1, 1, 1, 1, 1, 1, 1, 1, 1, 1, 1, 1, 1, 1, 1, 1, 1, 1, 1, 1, 1];
Lower_Bound = [1, 1, 2, 3, 4, 2, 2, 3, 5, 5, 6, 5, 5, 5, 6, 7];
Upper_Bound = [5, 18, 6, 4, 10, 5, 6, 11, 11, 7, 8, 15, 6, 10, 11, 8];
Start = 1;
End = 16;
Time = 8;
